
        $ From http://www.csplib.org/Problems/prob009/data/helmut.pdf
        $ Problem number 24
        $ Sequence length : 24
        language ESSENCE' 1.0
        letting sizemaster be 194
        letting sizes be sequence(2,3,7,9,10,16,17,18,19,20,23,25,28,34,36,37,42,53,54,61,65,68,69,72)
        